0 0 0 0
0 1 0 0
0 2 0 0
0 3 1 0
0 4 0 6
0 5 0 4
0 6 0 1
0 7 0 1
0 8 1 6
0 9 0 2
0 10 0 6
0 11 0 2
0 12 2 7
0 13 0 4
0 14 0 7
0 15 1 1
0 16 0 13
0 17 1 7
0 18 1 13
0 19 0 13
0 20 1 7
0 21 0 15
0 22 0 15
0 23 0 18
0 24 0 5
0 25 0 15
0 26 2 13
0 27 1 17
0 28 0 21
0 29 2 11
0 30 0 21
0 31 0 24
